$ Direct Text Input for Nastran System Cell Section
NASTRAN SYSTEM(151)=1
NASTRAN BUFFSIZE=65537
NASTRAN DBCFACT=4
ID MODEL RANDOM X
SOL 111
TIME 1000
CEND
AUTOSPC(NOPRINT)=YES
LINE=50000
     TITLE = RANDOM VIBRATION MODEL
     SUBTITLE = RANDOM VIBRATION SPCD METHOD MODEL
     LABEL = X-DIRECTION RANDOM INPUT
     ECHO = NONE 
     SPC      = 1
     METHOD   = 1
     DLOAD    = 10
     SDAMPING = 20
     RANDOM = 30
     FREQ     = 40 
     SET 99 = 859999
     SET 102 = 2001,2002,2003,2004,2011,2012,2013,2014,2021,2022,2023,
               2024,2031,2032,2033,2034,2041,2042,2043,2044,2051,2052,
               2053,2054
$     STRESS(SORT2,plot,phase,vonmises,rprint,crms)=all
     ACCELERATION(sort2,punch,real,psdf,rpunch) = 99
     FORCES(sort2,punch,real,psdf)=102
BEGIN BULK
$
PARAM,POST,0
PARAM,RESVEC,YES
PARAM,PRTMAXIM,YES
$------$$------$$------$$------$$------$$------$$------$$------$$------$$------$
SPC1           1  123456  859999
RLOAD2,10,11,,,12,,ACCE
SPCD,11,859999,1,9.81
$
TABLED1 12                                                    
        0.      1.      2000.      1.    ENDT
$------$$------$$------$$------$$------$$------$$------$$------$$------$$------$
TABDMP1 20      CRIT                                                    
        0.      0.025    2000.   0.025    ENDT
$------$$------$$------$$------$$------$$------$$------$$------$$------$$------$
RANDPS,30,1,1,1.0,0.0,31
$------$$------$$------$$------$$------$$------$$------$$------$$------$$------$
TABRND1 31      LOG     LOG
        20.00    0.02   25.00    0.02   30.00    0.03   35.00    0.03
        40.00    0.04   45.00    0.05   50.00    0.05   55.00    0.06
        60.00    0.07   65.00    0.08   70.00    0.08   75.00    0.09
        80.00    0.10   85.00    0.10   90.00    0.10   95.00    0.10
        100.00    0.10  105.00    0.10  110.00    0.10  115.00    0.10
        120.00    0.10  125.00    0.10  130.00    0.10  135.00    0.10
        140.00    0.10  145.00    0.10  150.00    0.10  155.00    0.10
        160.00    0.10  165.00    0.10  170.00    0.10  175.00    0.10
        180.00    0.10  185.00    0.10  190.00    0.10  195.00    0.10
        200.00    0.10  205.00    0.10  210.00    0.10  215.00    0.10
        220.00    0.10  225.00    0.10  230.00    0.10  235.00    0.10
        240.00    0.10  245.00    0.10  250.00    0.10  255.00    0.10
        260.00    0.10  265.00    0.10  270.00    0.10  275.00    0.10
        280.00    0.10  285.00    0.10  290.00    0.10  295.00    0.10
        300.00    0.10  305.00    0.10  310.00    0.10  315.00    0.10
        320.00    0.10  325.00    0.10  330.00    0.10  335.00    0.10
        340.00    0.10  345.00    0.10  350.00    0.10  355.00    0.10
        360.00    0.10  365.00    0.10  370.00    0.10  375.00    0.10
        380.00    0.10  385.00    0.10  390.00    0.10  395.00    0.10
        400.00    0.10  405.00    0.10  410.00    0.10  415.00    0.10
        420.00    0.10  425.00    0.10  430.00    0.10  435.00    0.10
        440.00    0.10  445.00    0.10  450.00    0.10  455.00    0.10
        460.00    0.10  465.00    0.10  470.00    0.10  475.00    0.10
        480.00    0.10  485.00    0.10  490.00    0.10  495.00    0.10
        500.00    0.10  505.00    0.10  510.00    0.10  515.00    0.10
        520.00    0.10  525.00    0.10  530.00    0.10  535.00    0.10
        540.00    0.10  545.00    0.10  550.00    0.10  555.00    0.10
        560.00    0.10  565.00    0.10  570.00    0.10  575.00    0.10
        580.00    0.10  585.00    0.10  590.00    0.10  595.00    0.10
        600.00    0.10  605.00    0.10  610.00    0.10  615.00    0.10
        620.00    0.10  625.00    0.10  630.00    0.10  635.00    0.10
        640.00    0.10  645.00    0.10  650.00    0.10  655.00    0.10
        660.00    0.10  665.00    0.10  670.00    0.10  675.00    0.10
        680.00    0.10  685.00    0.10  690.00    0.10  695.00    0.10
        700.00    0.10  705.00    0.10  710.00    0.10  715.00    0.10
        720.00    0.10  725.00    0.10  730.00    0.10  735.00    0.10
        740.00    0.10  745.00    0.10  750.00    0.10  755.00    0.10
        760.00    0.10  765.00    0.10  770.00    0.10  775.00    0.10
        780.00    0.10  785.00    0.10  790.00    0.10  795.00    0.10
        800.00    0.10  805.00    0.10  810.00    0.10  815.00    0.10
        820.00    0.10  825.00    0.10  830.00    0.10  835.00    0.10
        840.00    0.10  845.00    0.10  850.00    0.10  855.00    0.10
        860.00    0.10  865.00    0.10  870.00    0.10  875.00    0.10
        880.00    0.10  885.00    0.10  890.00    0.10  895.00    0.10
        900.00    0.10  905.00    0.10  910.00    0.10  915.00    0.10
        920.00    0.10  925.00    0.10  930.00    0.10  935.00    0.10
        940.00    0.10  945.00    0.10  950.00    0.10  955.00    0.10
        960.00    0.10  965.00    0.10  970.00    0.10  975.00    0.10
        980.00    0.10  985.00    0.10  990.00    0.10  995.00    0.10
        1000.00    0.10 1005.00    0.10 1010.00    0.10 1015.00    0.10
        1020.00    0.10 1025.00    0.10 1030.00    0.10 1035.00    0.10
        1040.00    0.10 1045.00    0.10 1050.00    0.10 1055.00    0.09
        1060.00    0.09 1065.00    0.09 1070.00    0.09 1075.00    0.09
        1080.00    0.09 1085.00    0.09 1090.00    0.09 1095.00    0.09
        1100.00    0.09 1105.00    0.09 1110.00    0.09 1115.00    0.09
        1120.00    0.09 1125.00    0.09 1130.00    0.09 1135.00    0.09
        1140.00    0.09 1145.00    0.09 1150.00    0.09 1155.00    0.09
        1160.00    0.09 1165.00    0.09 1170.00    0.09 1175.00    0.09
        1180.00    0.08 1185.00    0.08 1190.00    0.08 1195.00    0.08
        1200.00    0.08 1205.00    0.08 1210.00    0.08 1215.00    0.08
        1220.00    0.08 1225.00    0.08 1230.00    0.08 1235.00    0.08
        1240.00    0.08 1245.00    0.08 1250.00    0.08 1255.00    0.08
        1260.00    0.08 1265.00    0.08 1270.00    0.08 1275.00    0.08
        1280.00    0.08 1285.00    0.08 1290.00    0.08 1295.00    0.08
        1300.00    0.08 1305.00    0.08 1310.00    0.08 1315.00    0.08
        1320.00    0.08 1325.00    0.08 1330.00    0.08 1335.00    0.07
        1340.00    0.07 1345.00    0.07 1350.00    0.07 1355.00    0.07
        1360.00    0.07 1365.00    0.07 1370.00    0.07 1375.00    0.07
        1380.00    0.07 1385.00    0.07 1390.00    0.07 1395.00    0.07
        1400.00    0.07 1405.00    0.07 1410.00    0.07 1415.00    0.07
        1420.00    0.07 1425.00    0.07 1430.00    0.07 1435.00    0.07
        1440.00    0.07 1445.00    0.07 1450.00    0.07 1455.00    0.07
        1460.00    0.07 1465.00    0.07 1470.00    0.07 1475.00    0.07
        1480.00    0.07 1485.00    0.07 1490.00    0.07 1495.00    0.07
        1500.00    0.07 1505.00    0.07 1510.00    0.07 1515.00    0.07
        1520.00    0.07 1525.00    0.07 1530.00    0.07 1535.00    0.07
        1540.00    0.07 1545.00    0.06 1550.00    0.06 1555.00    0.06
        1560.00    0.06 1565.00    0.06 1570.00    0.06 1575.00    0.06
        1580.00    0.06 1585.00    0.06 1590.00    0.06 1595.00    0.06
        1600.00    0.06 1605.00    0.06 1610.00    0.06 1615.00    0.06
        1620.00    0.06 1625.00    0.06 1630.00    0.06 1635.00    0.06
        1640.00    0.06 1645.00    0.06 1650.00    0.06 1655.00    0.06
        1660.00    0.06 1665.00    0.06 1670.00    0.06 1675.00    0.06
        1680.00    0.06 1685.00    0.06 1690.00    0.06 1695.00    0.06
        1700.00    0.06 1705.00    0.06 1710.00    0.06 1715.00    0.06
        1720.00    0.06 1725.00    0.06 1730.00    0.06 1735.00    0.06
        1740.00    0.06 1745.00    0.06 1750.00    0.06 1755.00    0.06
        1760.00    0.06 1765.00    0.06 1770.00    0.06 1775.00    0.06
        1780.00    0.06 1785.00    0.06 1790.00    0.06 1795.00    0.06
        1800.00    0.06 1805.00    0.06 1810.00    0.06 1815.00    0.06
        1820.00    0.06 1825.00    0.05 1830.00    0.05 1835.00    0.05
        1840.00    0.05 1845.00    0.05 1850.00    0.05 1855.00    0.05
        1860.00    0.05 1865.00    0.05 1870.00    0.05 1875.00    0.05
        1880.00    0.05 1885.00    0.05 1890.00    0.05 1895.00    0.05
        1900.00    0.05 1905.00    0.05 1910.00    0.05 1915.00    0.05
        1920.00    0.05 1925.00    0.05 1930.00    0.05 1935.00    0.05
        1940.00    0.05 1945.00    0.05 1950.00    0.05 1955.00    0.05
        1960.00    0.05 1965.00    0.05 1970.00    0.05 1975.00    0.05
        1980.00    0.05 1985.00    0.05 1990.00    0.05 1995.00    0.05
        ENDT    
$------$$------$$------$$------$$------$$------$$------$$------$$------$$------$
FREQ1,40,20.0,1.0,1980
FREQ4,40,20.,2000.,0.3,5
$
EIGRL          1      0.   2000.               0                    
$ Definition of the node for the SHAKER
GRID     859999          -.0775  -.0855   -.100
$------$$------$$------$$------$$------$$------$$------$$------$$------$$------$
$ Multipoint Constraints to join I/Fs to the Shaker
RBE2     860000  859999  12345   190004  190010  190016  190022  190028  
         190035
$------$$------$$------$$------$$------$$------$$------$$------$$------$$------$
$ Referenced Coordinate Frames
$
INCLUDE 'MODEL_NAME.bdf'
$
ENDDATA 

